11 11
7
3 3 5 4
3 4 5 7
3 5 8 0
3 6 8 5
5 3 0 4
5 4 0 7
8 4 0 0
% time elapsed: 0.10 s
% time elapsed: 0.10 s
%%%mzn-stat: initTime=0.000276
%%%mzn-stat: solveTime=0.000777
%%%mzn-stat: solutions=14
%%%mzn-stat: variables=15
%%%mzn-stat: propagators=12
%%%mzn-stat: propagations=1605
%%%mzn-stat: nodes=223
%%%mzn-stat: failures=77
%%%mzn-stat: restarts=0
%%%mzn-stat: peakDepth=17
%%%mzn-stat-end
